
  32    4
  10   10   10   10

   0   0   0   0   0   5 2 4 8 9 13 
   4   1   1   0   1   2 21 3 
   8   5   5   1   0   2 12 5 
   6   5   4   0   7   3 21 12 6 
   5   4   0   2   4   3 31 11 7 
   3   3   3   0   3   5 31 30 29 14 11 
   7   5   4   6   0   2 20 10 
   7   4   0   1   4   4 30 29 18 14 
   3   4   4   5   0   2 29 12 
   1   5   6   0   2   3 29 18 14 
   3   3   3   6   0   6 28 27 20 19 18 15 
   2   0   2   3   2   6 28 27 24 18 17 15 
   9   3   5   1   0   6 29 21 20 18 17 15 
  10   4   5   5   0   6 28 27 26 25 23 16 
   3   2   1   8   0   3 26 25 22 
   7   0   2   2   4   2 22 19 
   9   5   0   2   4   2 30 22 
   7   4   0   9   6   1 23 
   5   4   5   2   0   1 24 
  10   6   6   4   0   1 23 
   4   0   4   3   3   1 30 
   1   0   4   4   3   1 32
   6   7   5   0   3   1 32
   6   3   0   2   5   1 32
   6   0   3   2   3   1 32
   7   0   4   4   5   1 32
   4   3   3   8   0   1 32
   3   0   7   5   3   1 32
   1   6   7   0   7   1 32
   7   1   3   6   0   1 32
   1   5   0   5   7   1 32
   0   0   0   0   0   0 
